20190712 109 0 0 0
20160718 160 0 0 0
20150618 120 0 0 0
20140710 55 0 0 0
20130702 100 0 0 0
20120628 10 500 0 0
20110727 100 0 0 0
20100601 60 0 0 0
20090612 50 100 0 0
20080707 20 1500 0 0
20070705 0 1700 0 0
20060630 100 5000 0 0
20060622 69 3080 0 0
20050727 100 0 0 0
20040709 500 0 0 0
